
Gurobi 11.0.1 (win64) logging started Wed Mar 13 20:00:55 2024

Set parameter LogFile to value "C:\Projetos\Job_Rotation_Algorithms\Outputs\GurobiLogs\gurobi_log-output-40_ros-c30-CostaMirallesModel-NoExtraConstraint-2.log"
Gurobi Optimizer version 11.0.1 build v11.0.1rc0 (win64 - Windows 10.0 (19045.2))

CPU model: 11th Gen Intel(R) Core(TM) i7-1165G7 @ 2.80GHz, instruction set [SSE2|AVX|AVX2|AVX512]
Thread count: 4 physical cores, 8 logical processors, using up to 1 threads


Gurobi 11.0.1 (win64) logging started Thu Mar 14 07:59:12 2024

Set parameter LogFile to value "C:\Projetos\Job_Rotation_Algorithms\Outputs\GurobiLogs\gurobi_log-output-40_ros-c30-CostaMirallesModel-NoExtraConstraint-2.log"
Gurobi Optimizer version 11.0.1 build v11.0.1rc0 (win64 - Windows 10.0 (19045.2))

CPU model: 11th Gen Intel(R) Core(TM) i7-1165G7 @ 2.80GHz, instruction set [SSE2|AVX|AVX2|AVX512]
Thread count: 4 physical cores, 8 logical processors, using up to 1 threads


Gurobi 11.0.1 (win64) logging started Fri Mar 15 00:36:39 2024

Set parameter LogFile to value "C:\Projetos\Job_Rotation_Algorithms\Outputs\GurobiLogs\gurobi_log-output-40_ros-c30-CostaMirallesModel-NoExtraConstraint-2.log"
Gurobi Optimizer version 11.0.1 build v11.0.1rc0 (win64 - Windows 10.0 (19045.2))

CPU model: 11th Gen Intel(R) Core(TM) i7-1165G7 @ 2.80GHz, instruction set [SSE2|AVX|AVX2|AVX512]
Thread count: 4 physical cores, 8 logical processors, using up to 1 threads


Gurobi 11.0.1 (win64) logging started Fri Mar 15 08:43:16 2024

Set parameter LogFile to value "C:\Projetos\Job_Rotation_Algorithms\Outputs\GurobiLogs\gurobi_log-output-40_ros-c30-CostaMirallesModel-NoExtraConstraint-2.log"
Gurobi Optimizer version 11.0.1 build v11.0.1rc0 (win64 - Windows 10.0 (19045.2))

CPU model: 11th Gen Intel(R) Core(TM) i7-1165G7 @ 2.80GHz, instruction set [SSE2|AVX|AVX2|AVX512]
Thread count: 4 physical cores, 8 logical processors, using up to 1 threads

WLS license 901039 - registered to Bitka Analytics
Optimize a model with 426 rows, 889 columns and 6953 nonzeros
Model fingerprint: 0xc91f9fcc
Variable types: 2 continuous, 887 integer (887 binary)
Coefficient statistics:
  Matrix range     [1e+00, 3e+01]
  Objective range  [1e+00, 1e+00]
  Bounds range     [1e+00, 6e+01]
  RHS range        [1e+00, 6e+01]
Presolve removed 41 rows and 109 columns
Presolve time: 0.03s
Presolved: 385 rows, 780 columns, 5755 nonzeros
Variable types: 0 continuous, 780 integer (779 binary)

Root relaxation: objective 5.000000e+01, 466 iterations, 0.00 seconds (0.01 work units)

    Nodes    |    Current Node    |     Objective Bounds      |     Work
 Expl Unexpl |  Obj  Depth IntInf | Incumbent    BestBd   Gap | It/Node Time

     0     0   50.00000    0   14          -   50.00000      -     -    0s
     0     0   50.00000    0  116          -   50.00000      -     -    0s
     0     0   50.00000    0  108          -   50.00000      -     -    0s
     0     0   50.00000    0   59          -   50.00000      -     -    0s
     0     0   50.00000    0   46          -   50.00000      -     -    0s
     0     0   50.00000    0   24          -   50.00000      -     -    0s
     0     0   50.00000    0   42          -   50.00000      -     -    0s
     0     0   50.00000    0   48          -   50.00000      -     -    0s
     0     0   50.00000    0   48          -   50.00000      -     -    0s
     0     2   50.00000    0   29          -   50.00000      -     -    0s
H 1098   345                      46.0000000   50.00000  8.70%  11.8    4s
H 1098   327                      47.0000000   50.00000  6.38%  11.8    4s
* 1124   309              31      48.0000000   50.00000  4.17%  12.9    4s
  1233   290     cutoff   19        48.00000   50.00000  4.17%  22.6    5s
  1884   133   50.00000   20  102   48.00000   50.00000  4.17%  65.4   10s
  2426    78   50.00000   26  112   48.00000   50.00000  4.17%  85.4   15s
  2952    45   50.00000   28   58   48.00000   50.00000  4.17%  91.8   20s

Cutting planes:
  Cover: 30
  Implied bound: 1
  Clique: 44
  MIR: 3
  StrongCG: 1
  Flow cover: 11
  GUB cover: 13
  Zero half: 2
  RLT: 6
  BQP: 6

Explored 3126 nodes (368763 simplex iterations) in 21.83 seconds (22.43 work units)
Thread count was 1 (of 8 available processors)

Solution count 3: 48 47 46 

Optimal solution found (tolerance 1.00e-03)
Best objective 4.800000000000e+01, best bound 4.800000000000e+01, gap 0.0000%
